results/sol/FMS_02_makespan_heurFalse.sol
# Solution for model JobShopModel
# Objective value = 1339
y[0,0,0] 0
y[0,0,1] 1
y[0,1,0] 1
y[1,0,1] 1
y[1,1,0] 1
y[1,1,1] 0
x[0,0,0,0] 0
x[0,0,0,1] 1
x[0,0,1,0] 1
x[0,0,1,1] 1
x[0,1,0,0] 0
x[0,1,0,1] 0
x[0,1,1,0] 0
x[0,1,1,1] 1
x[1,0,0,0] 0
x[1,0,0,1] 0
x[1,0,1,0] 0
x[1,0,1,1] 0
x[1,1,0,0] 0
x[1,1,0,1] 0
x[1,1,1,0] 0
x[1,1,1,1] 0
s[0,0,0] 0
s[0,0,1] 724
s[0,1,0] 635
s[1,0,1] 501
s[1,1,0] 480
s[1,1,1] 0
Z_FO 1339
