results/log/FMS_02_makespan_heurFalse.log

Gurobi 10.0.1 (win64) logging started Sun Oct  8 04:17:21 2023

Set parameter LogFile to value "./results//log/FMS_02_makespan_heurFalse.log"
Gurobi Optimizer version 10.0.1 build v10.0.1rc0 (win64)

CPU model: AMD Ryzen 7 3700X 8-Core Processor, instruction set [SSE2|AVX|AVX2]
Thread count: 8 physical cores, 16 logical processors, using up to 16 threads

Optimize a model with 38 rows, 29 columns and 126 nonzeros
Model fingerprint: 0x51ed9349
Variable types: 0 continuous, 29 integer (22 binary)
Coefficient statistics:
  Matrix range     [1e+00, 1e+07]
  Objective range  [1e+00, 1e+00]
  Bounds range     [1e+00, 1e+00]
  RHS range        [1e+00, 3e+07]
Found heuristic solution: objective 1405.0000000
Presolve removed 14 rows and 14 columns
Presolve time: 0.00s
Presolved: 24 rows, 15 columns, 87 nonzeros
Variable types: 0 continuous, 15 integer (9 binary)

Root relaxation: objective 1.131000e+03, 7 iterations, 0.00 seconds (0.00 work units)

    Nodes    |    Current Node    |     Objective Bounds      |     Work
 Expl Unexpl |  Obj  Depth IntInf | Incumbent    BestBd   Gap | It/Node Time

     0     0 1131.00000    0    4 1405.00000 1131.00000  19.5%     -    0s
     0     0 1138.00000    0    4 1405.00000 1138.00000  19.0%     -    0s
H    0     0                    1339.0000000 1138.00000  15.0%     -    0s

Cutting planes:
  Learned: 1

Explored 1 nodes (8 simplex iterations) in 0.05 seconds (0.00 work units)
Thread count was 16 (of 16 available processors)

Solution count 2: 1339 1405 

Optimal solution found (tolerance 1.00e-04)
Best objective 1.339000000000e+03, best bound 1.339000000000e+03, gap 0.0000%
Warning: constraint name "precedence between 0,0 to 0,1 if x_[0,0,0,1,0]=0, i.e. 0,1 before 0,0" has a space
Warning: constraint name "precedence between 0,0 to 0,1 if x_[0,0,0,1,0]=0, i.e. 0,1 before 0,0" has a space
Warning: default constraint names used to write mps file
